\ Model Ore Mixing Problem
\ LP format - for model browsing. Use MPS format to capture full model detail.
Minimize
  49.65243296921549 a_max_00 + 61.99628022318663 a_max_01
   + 50000.00000000995 a_max_02 + 25.31004808909137 a_max_03
   + 2631.578947368422 a_max_10 + 729.92700729927 a_max_11
   + 1111.111111111111 a_max_12 + 704.2253521126761 a_max_13
   + 4347.826086956522 a_max_20 + 2127.659574468085 a_max_21
   + 12500 a_max_22 + 4000 a_max_23 + 7692.307692307691 a_max_30
   + 12500 a_max_31 + 3846.153846153846 a_max_32
   + 9090.909090909092 a_max_33 + 1010.10101010101 a_max_40
   + 3333.333333333333 a_max_41 + 1315.789473684211 a_max_42
   + 1960.78431372549 a_max_43 + 4000 a_max_50 + 3703.703703703709 a_max_51
   + 2631.578947368422 a_max_52 + 675.6756756756756 a_max_53
   + 40.22526146419952 a_min_00 + 34.6380325597506 a_min_01
   + 22.23210315695865 a_min_02 + 182.1493624772313 a_min_03
   + 892.8571428571428 a_min_10 + 7692.307692307691 a_min_11
   + 1666.666666666667 a_min_12 + 12500 a_min_13
   + 3703.703703703703 a_min_20 + 33333.33333333334 a_min_21
   + 2380.952380952381 a_min_22 + 4000 a_min_23
   + 2702.702702702702 a_min_30 + 2380.952380952381 a_min_31
   + 4166.666666666667 a_min_32 + 2564.102564102564 a_min_33
   + 100000 a_min_40 + 1428.571428571429 a_min_41
   + 4166.666666666667 a_min_42 + 2040.816326530612 a_min_43 + 800 a_min_50
   + 813.0081300813006 a_min_51 + 892.8571428571428 a_min_52
   + 50000 a_min_53 + 0.0496524329692155 b_min_00
   + 0.0619962802231866 b_min_01 + 50 b_min_02
   + 0.1821493624772313 b_min_03 + 2.631578947368422 b_min_10
   + 7.692307692307692 b_min_11 + 1.666666666666667 b_min_12
   + 12.5 b_min_13 + 4.347826086956522 b_min_20
   + 33.33333333333334 b_min_21 + 12.5 b_min_22 + 4 b_min_23
   + 7.692307692307692 b_min_30 + 12.5 b_min_31
   + 4.166666666666667 b_min_32 + 9.090909090909092 b_min_33 + 100 b_min_40
   + 3.333333333333333 b_min_41 + 4.166666666666667 b_min_42
   + 2.040816326530612 b_min_43 + 4 b_min_50 + 3.703703703703709 b_min_51
   + 2.631578947368422 b_min_52 + 50 b_min_53 + 0.0496524329692155 b_max_00
   + 0.0619962802231866 b_max_01 + 50 b_max_02
   + 0.1821493624772313 b_max_03 + 2.631578947368422 b_max_10
   + 7.692307692307692 b_max_11 + 1.666666666666667 b_max_12
   + 12.5 b_max_13 + 4.347826086956522 b_max_20
   + 33.33333333333334 b_max_21 + 12.5 b_max_22 + 4 b_max_23
   + 7.692307692307692 b_max_30 + 12.5 b_max_31
   + 4.166666666666667 b_max_32 + 9.090909090909092 b_max_33 + 100 b_max_40
   + 3.333333333333333 b_max_41 + 4.166666666666667 b_max_42
   + 2.040816326530612 b_max_43 + 4 b_max_50 + 3.703703703703709 b_max_51
   + 2.631578947368422 b_max_52 + 50 b_max_53
Subject To
 capacity_constr_0: x_00 + x_01 + x_02 + x_03 <= 1257.8
 capacity_constr_1: x_10 + x_11 + x_12 + x_13 <= 1454.8
 capacity_constr_2: x_20 + x_21 + x_22 + x_23 <= 1074.3
 capacity_constr_3: x_30 + x_31 + x_32 + x_33 <= 1128.7
 capacity_constr_4: x_40 + x_41 + x_42 + x_43 <= 1387.9
 capacity_constr_5: x_50 + x_51 + x_52 + x_53 <= 1085.6
 demand_constr_0: x_00 + x_10 + x_20 + x_30 + x_40 + x_50 = 1041
 min_quality_constr_00: 38.42 x_00 + 29.33 x_10 + 14.48 x_20 + 5.84 x_30
   + 29.02 x_40 + 4.84 x_50 + 1041 a_min_00 >= -0
 max_quality_constr_00: - 6.58 x_00 - 15.67 x_10 - 30.52 x_20 - 39.16 x_30
   - 15.98 x_40 - 40.16 x_50 - 1041 a_max_00 <= -0
 goal_quality_constr_00: 13.56 x_00 + 4.47 x_10 - 10.38 x_20 - 19.02 x_30
   + 4.16 x_40 - 20.02 x_50 + b_min_00 - b_max_00 = -0
 min_quality_constr_10: 0.85 x_00 + 1.2 x_10 + 1.39 x_20 + 0.16 x_30
   + 1.28 x_40 + 0.94 x_50 + 1041 a_min_10 >= -0
 max_quality_constr_10: - 0.65 x_00 - 0.3 x_10 - 0.11 x_20 - 1.34 x_30
   - 0.22 x_40 - 0.56 x_50 - 1041 a_max_10 <= -0
 goal_quality_constr_10: - 0.27 x_00 + 0.08 x_10 + 0.27 x_20 - 0.96 x_30
   + 0.16 x_40 - 0.18 x_50 + b_min_10 - b_max_10 = -0
 min_quality_constr_20: 0.43 x_00 + 1.72 x_10 + 3.9 x_20 + 2.1 x_30
   + 4.51 x_40 + 2.46 x_50 + 1041 a_min_20 >= -0
 max_quality_constr_20: - 0.07 x_00 + 1.22 x_10 + 3.4 x_20 + 1.6 x_30
   + 4.01 x_40 + 1.96 x_50 - 1041 a_max_20 <= -0
 goal_quality_constr_20: 0.16 x_00 + 1.45 x_10 + 3.63 x_20 + 1.83 x_30
   + 4.24 x_40 + 2.19 x_50 + b_min_20 - b_max_20 = -0
 min_quality_constr_30: 4.91 x_00 + 0.71 x_10 + 4.48 x_20 + 1.1 x_30
   + 2.69 x_40 + 0.45 x_50 + 1041 a_min_30 >= -0
 max_quality_constr_30: 4.41 x_00 + 0.21 x_10 + 3.98 x_20 + 0.6 x_30
   + 2.19 x_40 - 0.05 x_50 - 1041 a_max_30 <= -0
 goal_quality_constr_30: 4.54 x_00 + 0.34 x_10 + 4.11 x_20 + 0.73 x_30
   + 2.32 x_40 + 0.08 x_50 + b_min_30 - b_max_30 = -0
 min_quality_constr_40: 0.42 x_00 + 0.97 x_10 + 0.34 x_20 + 0.41 x_30
   + 0.93 x_40 + 1.07 x_50 + 1041 a_min_40 >= -0
 max_quality_constr_40: - 0.58 x_00 - 0.03 x_10 - 0.66 x_20 - 0.59 x_30
   - 0.07 x_40 + 0.07 x_50 - 1041 a_max_40 <= -0
 goal_quality_constr_40: 0.41 x_00 + 0.96 x_10 + 0.33 x_20 + 0.4 x_30
   + 0.92 x_40 + 1.06 x_50 + b_min_40 - b_max_40 = -0
 min_quality_constr_50: 1.65 x_00 - 0.59 x_10 - 0.46 x_20 + 1.6 x_30
   - 0.61 x_40 + 2.32 x_50 + 1041 a_min_50 >= -0
 max_quality_constr_50: 0.15 x_00 - 2.09 x_10 - 1.96 x_20 + 0.1 x_30
   - 2.11 x_40 + 0.82 x_50 - 1041 a_max_50 <= -0
 goal_quality_constr_50: 0.4 x_00 - 1.84 x_10 - 1.71 x_20 + 0.35 x_30
   - 1.86 x_40 + 1.07 x_50 + b_min_50 - b_max_50 = -0
 demand_constr_1: x_01 + x_11 + x_21 + x_31 + x_41 + x_51 = 1428.3
 min_quality_constr_01: 38.42 x_01 + 29.33 x_11 + 14.48 x_21 + 5.84 x_31
   + 29.02 x_41 + 4.84 x_51 + 1428.3 a_min_01 >= -0
 max_quality_constr_01: - 6.58 x_01 - 15.67 x_11 - 30.52 x_21 - 39.16 x_31
   - 15.98 x_41 - 40.16 x_51 - 1428.3 a_max_01 <= -0
 goal_quality_constr_01: 9.55 x_01 + 0.46 x_11 - 14.39 x_21 - 23.03 x_31
   + 0.15 x_41 - 24.03 x_51 + b_min_01 - b_max_01 = -0
 min_quality_constr_11: 0.85 x_01 + 1.2 x_11 + 1.39 x_21 + 0.16 x_31
   + 1.28 x_41 + 0.94 x_51 + 1428.3 a_min_11 >= -0
 max_quality_constr_11: - 0.65 x_01 - 0.3 x_11 - 0.11 x_21 - 1.34 x_31
   - 0.22 x_41 - 0.56 x_51 - 1428.3 a_max_11 <= -0
 goal_quality_constr_11: 0.72 x_01 + 1.07 x_11 + 1.26 x_21 + 0.03 x_31
   + 1.15 x_41 + 0.81 x_51 + b_min_11 - b_max_11 = -0
 min_quality_constr_21: 0.43 x_01 + 1.72 x_11 + 3.9 x_21 + 2.1 x_31
   + 4.51 x_41 + 2.46 x_51 + 1428.3 a_min_21 >= -0
 max_quality_constr_21: - 0.07 x_01 + 1.22 x_11 + 3.4 x_21 + 1.6 x_31
   + 4.01 x_41 + 1.96 x_51 - 1428.3 a_max_21 <= -0
 goal_quality_constr_21: 0.4 x_01 + 1.69 x_11 + 3.87 x_21 + 2.07 x_31
   + 4.48 x_41 + 2.43 x_51 + b_min_21 - b_max_21 = -0
 min_quality_constr_31: 4.91 x_01 + 0.71 x_11 + 4.48 x_21 + 1.1 x_31
   + 2.69 x_41 + 0.45 x_51 + 1428.3 a_min_31 >= -0
 max_quality_constr_31: 4.41 x_01 + 0.21 x_11 + 3.98 x_21 + 0.6 x_31
   + 2.19 x_41 - 0.05 x_51 - 1428.3 a_max_31 <= -0
 goal_quality_constr_31: 4.49 x_01 + 0.29 x_11 + 4.06 x_21 + 0.68 x_31
   + 2.27 x_41 + 0.03 x_51 + b_min_31 - b_max_31 = -0
 min_quality_constr_41: 0.42 x_01 + 0.97 x_11 + 0.34 x_21 + 0.41 x_31
   + 0.93 x_41 + 1.07 x_51 + 1428.3 a_min_41 >= -0
 max_quality_constr_41: - 0.58 x_01 - 0.03 x_11 - 0.66 x_21 - 0.59 x_31
   - 0.07 x_41 + 0.07 x_51 - 1428.3 a_max_41 <= -0
 goal_quality_constr_41: - 0.28 x_01 + 0.27 x_11 - 0.36 x_21 - 0.29 x_31
   + 0.23 x_41 + 0.37 x_51 + b_min_41 - b_max_41 = -0
 min_quality_constr_51: 1.65 x_01 - 0.59 x_11 - 0.46 x_21 + 1.6 x_31
   - 0.61 x_41 + 2.32 x_51 + 1428.3 a_min_51 >= -0
 max_quality_constr_51: 0.15 x_01 - 2.09 x_11 - 1.96 x_21 + 0.1 x_31
   - 2.11 x_41 + 0.82 x_51 - 1428.3 a_max_51 <= -0
 goal_quality_constr_51: 0.42 x_01 - 1.82 x_11 - 1.69 x_21 + 0.37 x_31
   - 1.84 x_41 + 1.09 x_51 + b_min_51 - b_max_51 = -0
 demand_constr_2: x_02 + x_12 + x_22 + x_32 + x_42 + x_52 = 1145.3
 min_quality_constr_02: 38.42 x_02 + 29.33 x_12 + 14.48 x_22 + 5.84 x_32
   + 29.02 x_42 + 4.84 x_52 + 1145.3 a_min_02 >= -0
 max_quality_constr_02: - 6.58 x_02 - 15.67 x_12 - 30.52 x_22 - 39.16 x_32
   - 15.98 x_42 - 40.16 x_52 - 1145.3 a_max_02 <= -0
 goal_quality_constr_02: - 6.56 x_02 - 15.65 x_12 - 30.5 x_22 - 39.14 x_32
   - 15.96 x_42 - 40.14 x_52 + b_min_02 - b_max_02 = -0
 min_quality_constr_12: 0.85 x_02 + 1.2 x_12 + 1.39 x_22 + 0.16 x_32
   + 1.28 x_42 + 0.94 x_52 + 1145.3 a_min_12 >= -0
 max_quality_constr_12: - 0.65 x_02 - 0.3 x_12 - 0.11 x_22 - 1.34 x_32
   - 0.22 x_42 - 0.56 x_52 - 1145.3 a_max_12 <= -0
 goal_quality_constr_12: 0.25 x_02 + 0.6 x_12 + 0.79 x_22 - 0.44 x_32
   + 0.68 x_42 + 0.34 x_52 + b_min_12 - b_max_12 = -0
 min_quality_constr_22: 0.43 x_02 + 1.72 x_12 + 3.9 x_22 + 2.1 x_32
   + 4.51 x_42 + 2.46 x_52 + 1145.3 a_min_22 >= -0
 max_quality_constr_22: - 0.07 x_02 + 1.22 x_12 + 3.4 x_22 + 1.6 x_32
   + 4.01 x_42 + 1.96 x_52 - 1145.3 a_max_22 <= -0
 goal_quality_constr_22: 0.01 x_02 + 1.3 x_12 + 3.48 x_22 + 1.68 x_32
   + 4.09 x_42 + 2.04 x_52 + b_min_22 - b_max_22 = -0
 min_quality_constr_32: 4.91 x_02 + 0.71 x_12 + 4.48 x_22 + 1.1 x_32
   + 2.69 x_42 + 0.45 x_52 + 1145.3 a_min_32 >= -0
 max_quality_constr_32: 4.41 x_02 + 0.21 x_12 + 3.98 x_22 + 0.6 x_32
   + 2.19 x_42 - 0.05 x_52 - 1145.3 a_max_32 <= -0
 goal_quality_constr_32: 4.67 x_02 + 0.47 x_12 + 4.24 x_22 + 0.86 x_32
   + 2.45 x_42 + 0.21 x_52 + b_min_32 - b_max_32 = -0
 min_quality_constr_42: 0.42 x_02 + 0.97 x_12 + 0.34 x_22 + 0.41 x_32
   + 0.93 x_42 + 1.07 x_52 + 1145.3 a_min_42 >= -0
 max_quality_constr_42: - 0.58 x_02 - 0.03 x_12 - 0.66 x_22 - 0.59 x_32
   - 0.07 x_42 + 0.07 x_52 - 1145.3 a_max_42 <= -0
 goal_quality_constr_42: 0.18 x_02 + 0.73 x_12 + 0.1 x_22 + 0.17 x_32
   + 0.69 x_42 + 0.83 x_52 + b_min_42 - b_max_42 = -0
 min_quality_constr_52: 1.65 x_02 - 0.59 x_12 - 0.46 x_22 + 1.6 x_32
   - 0.61 x_42 + 2.32 x_52 + 1145.3 a_min_52 >= -0
 max_quality_constr_52: 0.15 x_02 - 2.09 x_12 - 1.96 x_22 + 0.1 x_32
   - 2.11 x_42 + 0.82 x_52 - 1145.3 a_max_52 <= -0
 goal_quality_constr_52: 0.53 x_02 - 1.71 x_12 - 1.58 x_22 + 0.48 x_32
   - 1.73 x_42 + 1.2 x_52 + b_min_52 - b_max_52 = -0
 demand_constr_3: x_03 + x_13 + x_23 + x_33 + x_43 + x_53 = 1271.1
 min_quality_constr_03: 38.42 x_03 + 29.33 x_13 + 14.48 x_23 + 5.84 x_33
   + 29.02 x_43 + 4.84 x_53 + 1271.1 a_min_03 >= -0
 max_quality_constr_03: - 6.58 x_03 - 15.67 x_13 - 30.52 x_23 - 39.16 x_33
   - 15.98 x_43 - 40.16 x_53 - 1271.1 a_max_03 <= -0
 goal_quality_constr_03: 32.93 x_03 + 23.84 x_13 + 8.99 x_23 + 0.35 x_33
   + 23.53 x_43 - 0.65 x_53 + b_min_03 - b_max_03 = -0
 min_quality_constr_13: 0.85 x_03 + 1.2 x_13 + 1.39 x_23 + 0.16 x_33
   + 1.28 x_43 + 0.94 x_53 + 1271.1 a_min_13 >= -0
 max_quality_constr_13: - 0.65 x_03 - 0.3 x_13 - 0.11 x_23 - 1.34 x_33
   - 0.22 x_43 - 0.56 x_53 - 1271.1 a_max_13 <= -0
 goal_quality_constr_13: 0.77 x_03 + 1.12 x_13 + 1.31 x_23 + 0.08 x_33
   + 1.2 x_43 + 0.86 x_53 + b_min_13 - b_max_13 = -0
 min_quality_constr_23: 0.43 x_03 + 1.72 x_13 + 3.9 x_23 + 2.1 x_33
   + 4.51 x_43 + 2.46 x_53 + 1271.1 a_min_23 >= -0
 max_quality_constr_23: - 0.07 x_03 + 1.22 x_13 + 3.4 x_23 + 1.6 x_33
   + 4.01 x_43 + 1.96 x_53 - 1271.1 a_max_23 <= -0
 goal_quality_constr_23: 0.18 x_03 + 1.47 x_13 + 3.65 x_23 + 1.85 x_33
   + 4.26 x_43 + 2.21 x_53 + b_min_23 - b_max_23 = -0
 min_quality_constr_33: 4.91 x_03 + 0.71 x_13 + 4.48 x_23 + 1.1 x_33
   + 2.69 x_43 + 0.45 x_53 + 1271.1 a_min_33 >= -0
 max_quality_constr_33: 4.41 x_03 + 0.21 x_13 + 3.98 x_23 + 0.6 x_33
   + 2.19 x_43 - 0.05 x_53 - 1271.1 a_max_33 <= -0
 goal_quality_constr_33: 4.52 x_03 + 0.32 x_13 + 4.09 x_23 + 0.71 x_33
   + 2.3 x_43 + 0.06 x_53 + b_min_33 - b_max_33 = -0
 min_quality_constr_43: 0.42 x_03 + 0.97 x_13 + 0.34 x_23 + 0.41 x_33
   + 0.93 x_43 + 1.07 x_53 + 1271.1 a_min_43 >= -0
 max_quality_constr_43: - 0.58 x_03 - 0.03 x_13 - 0.66 x_23 - 0.59 x_33
   - 0.07 x_43 + 0.07 x_53 - 1271.1 a_max_43 <= -0
 goal_quality_constr_43: - 0.07 x_03 + 0.48 x_13 - 0.15 x_23 - 0.08 x_33
   + 0.44 x_43 + 0.58 x_53 + b_min_43 - b_max_43 = -0
 min_quality_constr_53: 1.65 x_03 - 0.59 x_13 - 0.46 x_23 + 1.6 x_33
   - 0.61 x_43 + 2.32 x_53 + 1271.1 a_min_53 >= -0
 max_quality_constr_53: 0.15 x_03 - 2.09 x_13 - 1.96 x_23 + 0.1 x_33
   - 2.11 x_43 + 0.82 x_53 - 1271.1 a_max_53 <= -0
 goal_quality_constr_53: 1.63 x_03 - 0.61 x_13 - 0.48 x_23 + 1.58 x_33
   - 0.63 x_43 + 2.3 x_53 + b_min_53 - b_max_53 = -0
Bounds
End
